Maximize
F 

Subject to
F - 9.0y150 - 3.0y268 - 9.0y186 - 6.0y295 - 12.0y230 - 9.0y15 - 9.0y128 - 6.0y117 - 12.0y129 - 9.0y145 - 3.0y294 - 12.0y7 = 0

x181x145x1 
<= 1
x30x186x2 + x30x295x2 + x30x128x2 + x30x129x2 
<= 2
x80x186x2 + x80x295x2 + x80x128x2 + x80x129x2 
<= 1
x48x186x2 + x48x295x2 + x48x128x2 + x48x129x2 
<= 2
x181x129x3 + x181x145x3 + x181x294x3 
<= 1
x239x15x3 + x239x128x3 + x239x129x3 + x239x145x3 + x239x294x3 
<= 2



- x150x15x3 
= 0


- x268x117x1 
= 0




x30x186x2 + x80x186x2 + x48x186x2 
- x186x0x2
- x186x128x2 - x186x129x2 
= 0



- x295x230x1 - x295x15x1 - x295x7x1 
= 0
x30x295x2 + x80x295x2 + x48x295x2 
- x295x0x2

= 0


x295x230x1 
- x230x0x1
- x230x15x1 - x230x7x1 
= 0



x295x15x1 + x230x15x1 
- x15x0x1
- x15x7x1 
= 0

x239x15x3 + x150x15x3 
- x15x0x3

= 0


x30x128x2 + x80x128x2 + x48x128x2 + x186x128x2 
- x128x0x2
- x128x129x2 
= 0
x239x128x3 
- x128x0x3
- x128x129x3 - x128x145x3 - x128x294x3 
= 0

x268x117x1 
- x117x0x1

= 0




x30x129x2 + x80x129x2 + x48x129x2 + x186x129x2 + x128x129x2 
- x129x0x2

= 0
x181x129x3 + x239x129x3 + x128x129x3 
- x129x0x3
- x129x145x3 - x129x294x3 
= 0

x181x145x1 
- x145x0x1

= 0

x181x145x3 + x239x145x3 + x128x145x3 + x129x145x3 
- x145x0x3
- x145x294x3 
= 0



x181x294x3 + x239x294x3 + x128x294x3 + x129x294x3 + x145x294x3 
- x294x0x3

= 0

x295x7x1 + x230x7x1 + x15x7x1 
- x7x0x1

= 0



2y150 = 0
2y268 = 0
2y186 - x30x186x2 - x80x186x2 - x48x186x2 = 0
1y295 = 0
1y295 - x30x295x2 - x80x295x2 - x48x295x2 = 0
2y230 - x295x230x1 = 0
1y15 - x295x15x1 - x230x15x1 = 0
1y15 - x239x15x3 - x150x15x3 = 0
1y128 - x30x128x2 - x80x128x2 - x48x128x2 - x186x128x2 = 0
1y128 - x239x128x3 = 0
2y117 - x268x117x1 = 0
1y129 - x30x129x2 - x80x129x2 - x48x129x2 - x186x129x2 - x128x129x2 = 0
1y129 - x181x129x3 - x239x129x3 - x128x129x3 = 0
1y145 - x181x145x1 = 0
1y145 - x181x145x3 - x239x145x3 - x128x145x3 - x129x145x3 = 0
2y294 - x181x294x3 - x239x294x3 - x128x294x3 - x129x294x3 - x145x294x3 = 0
2y7 - x295x7x1 - x230x7x1 - x15x7x1 = 0

s181 - s129 + 9.376204z181z129z3 <= 8.19
s181 - s145 + 9.364805z181z145z1 <= 8.19
s181 - s145 + 9.364805z181z145z3 <= 8.19
s181 - s294 + 9.377711z181z294z3 <= 8.19
s30 - s186 + 8.937613z30z186z2 <= 7.52
s30 - s295 + 8.862345z30z295z2 <= 7.52
s30 - s128 + 8.942163z30z128z2 <= 7.52
s30 - s129 + 8.952307z30z129z2 <= 7.52
s239 - s15 + 9.298569z239z15z3 <= 7.93
s239 - s128 + 9.138770z239z128z3 <= 7.93
s239 - s129 + 9.126575z239z129z3 <= 7.93
s239 - s145 + 9.114780z239z145z3 <= 7.93
s239 - s294 + 9.127818z239z294z3 <= 7.93
s80 - s186 + 9.068899z80z186z2 <= 7.64
s80 - s295 + 8.996712z80z295z2 <= 7.64
s80 - s128 + 9.073643z80z128z2 <= 7.64
s80 - s129 + 9.083530z80z129z2 <= 7.64
s48 - s186 + 9.068862z48z186z2 <= 7.62
s48 - s295 + 9.002264z48z295z2 <= 7.62
s48 - s128 + 9.073930z48z128z2 <= 7.62
s48 - s129 + 9.083366z48z129z2 <= 7.62
s150 - s15 + 10.305375z150z15z3 <= 9.22
s268 - s117 + 10.263993z268z117z1 <= 9.23
s186 - s128 + 10.289428z186z128z2 <= 9.28
s186 - s129 + 10.294907z186z129z2 <= 9.28
s295 - s230 + 10.304037z295z230z1 <= 9.28
s295 - s15 + 10.289428z295z15z1 <= 9.28
s295 - s7 + 10.322164z295z7z1 <= 9.28
s230 - s15 + 10.337488z230z15z1 <= 9.31
s230 - s7 + 10.370001z230z7z1 <= 9.31
s15 - s7 + 10.383994z15z7z1 <= 9.35
s128 - s129 + 10.364907z128z129z2 <= 9.35
s128 - s129 + 10.364907z128z129z3 <= 9.35
s128 - s145 + 10.379814z128z145z3 <= 9.35
s128 - s294 + 10.368856z128z294z3 <= 9.35
s129 - s145 + 10.394907z129z145z3 <= 9.38
s129 - s294 + 10.386667z129z294z3 <= 9.38
s145 - s294 + 10.413333z145z294z3 <= 9.40

x181x129x3 - 1z181z129z3 <= 0
x181x145x1 - 1z181z145z1 <= 0
x181x145x3 - 1z181z145z3 <= 0
x181x294x3 - 2z181z294z3 <= 0
x30x186x2 - 2z30z186z2 <= 0
x30x295x2 - 1z30z295z2 <= 0
x30x128x2 - 1z30z128z2 <= 0
x30x129x2 - 1z30z129z2 <= 0
x239x15x3 - 1z239z15z3 <= 0
x239x128x3 - 1z239z128z3 <= 0
x239x129x3 - 1z239z129z3 <= 0
x239x145x3 - 1z239z145z3 <= 0
x239x294x3 - 2z239z294z3 <= 0
x80x186x2 - 2z80z186z2 <= 0
x80x295x2 - 1z80z295z2 <= 0
x80x128x2 - 1z80z128z2 <= 0
x80x129x2 - 1z80z129z2 <= 0
x48x186x2 - 2z48z186z2 <= 0
x48x295x2 - 1z48z295z2 <= 0
x48x128x2 - 1z48z128z2 <= 0
x48x129x2 - 1z48z129z2 <= 0
x150x15x3 - 1z150z15z3 <= 0
x150x0x3 <= 2
x268x117x1 - 2z268z117z1 <= 0
x268x0x1 <= 2
x186x128x2 - 1z186z128z2 <= 0
x186x129x2 - 1z186z129z2 <= 0
x186x0x2 <= 2
x295x230x1 - 2z295z230z1 <= 0
x295x15x1 - 1z295z15z1 <= 0
x295x7x1 - 2z295z7z1 <= 0
x295x0x1 <= 1
x295x0x2 <= 1
x230x15x1 - 1z230z15z1 <= 0
x230x7x1 - 2z230z7z1 <= 0
x230x0x1 <= 2
x15x7x1 - 2z15z7z1 <= 0
x15x0x1 <= 1
x15x0x3 <= 1
x128x129x2 - 1z128z129z2 <= 0
x128x129x3 - 1z128z129z3 <= 0
x128x145x3 - 1z128z145z3 <= 0
x128x294x3 - 2z128z294z3 <= 0
x128x0x2 <= 1
x128x0x3 <= 1
x117x0x1 <= 2
x129x145x3 - 1z129z145z3 <= 0
x129x294x3 - 2z129z294z3 <= 0
x129x0x2 <= 1
x129x0x3 <= 1
x145x294x3 - 2z145z294z3 <= 0
x145x0x1 <= 1
x145x0x3 <= 1
x294x0x3 <= 2
x7x0x1 <= 2

s186 - 6.00z30z186z2 >= 0
s186 - 6.00z80z186z2 >= 0
s186 - 6.00z48z186z2 >= 0
s295 - 6.00z30z295z2 >= 0
s295 - 6.00z80z295z2 >= 0
s295 - 6.00z48z295z2 >= 0
s230 - 6.00z295z230z1 >= 0
s15 - 6.00z239z15z3 >= 0
s15 - 6.00z150z15z3 >= 0
s15 - 6.00z295z15z1 >= 0
s15 - 6.00z230z15z1 >= 0
s128 - 6.00z30z128z2 >= 0
s128 - 6.00z239z128z3 >= 0
s128 - 6.00z80z128z2 >= 0
s128 - 6.00z48z128z2 >= 0
s128 - 6.00z186z128z2 >= 0
s117 - 6.00z268z117z1 >= 0
s129 - 6.00z181z129z3 >= 0
s129 - 6.00z30z129z2 >= 0
s129 - 6.00z239z129z3 >= 0
s129 - 6.00z80z129z2 >= 0
s129 - 6.00z48z129z2 >= 0
s129 - 6.00z186z129z2 >= 0
s129 - 6.00z128z129z2 >= 0
s129 - 6.00z128z129z3 >= 0
s145 - 6.00z181z145z1 >= 0
s145 - 6.00z181z145z3 >= 0
s145 - 6.00z239z145z3 >= 0
s145 - 6.00z128z145z3 >= 0
s145 - 6.00z129z145z3 >= 0
s294 - 6.00z181z294z3 >= 0
s294 - 6.00z239z294z3 >= 0
s294 - 6.00z128z294z3 >= 0
s294 - 6.00z129z294z3 >= 0
s294 - 6.00z145z294z3 >= 0
s7 - 6.00z295z7z1 >= 0
s7 - 6.00z230z7z1 >= 0
s7 - 6.00z15z7z1 >= 0

Bounds
s238 = 8.554975
s287 = 8.110000
s196 = 9.137251
s185 = 8.974869
s60 = 8.638465
s181 = 8.185300
s177 = 8.473330
s30 = 7.520000
s239 = 7.930390
s80 = 7.640310
s55 = 8.506670
s48 = 7.624140
s229 = 8.450370
s64 = 8.440770
8.220000 <= s150 <= 9.220000
8.230000 <= s268 <= 9.230000
8.280000 <= s186 <= 9.280000
8.280000 <= s295 <= 9.280000
8.310000 <= s230 <= 9.310000
8.350000 <= s15 <= 9.350000
8.350000 <= s128 <= 9.350000
8.360000 <= s117 <= 9.360000
8.380000 <= s129 <= 9.380000
8.400000 <= s145 <= 9.400000
8.440000 <= s294 <= 9.440000
8.490000 <= s7 <= 9.490000

General





x181x129x3 x181x145x1 x181x145x3 x181x294x3 

x30x186x2 x30x295x2 x30x128x2 x30x129x2 
x239x15x3 x239x128x3 x239x129x3 x239x145x3 x239x294x3 
x80x186x2 x80x295x2 x80x128x2 x80x129x2 

x48x186x2 x48x295x2 x48x128x2 x48x129x2 


x150x15x3 x150x0x3 
x268x117x1 x268x0x1 
x186x128x2 x186x129x2 x186x0x2 
x295x230x1 x295x15x1 x295x7x1 x295x0x1 x295x0x2 
x230x15x1 x230x7x1 x230x0x1 
x15x7x1 x15x0x1 x15x0x3 
x128x129x2 x128x129x3 x128x145x3 x128x294x3 x128x0x2 x128x0x3 
x117x0x1 
x129x145x3 x129x294x3 x129x0x2 x129x0x3 
x145x294x3 x145x0x1 x145x0x3 
x294x0x3 
x7x0x1 

Binaries
y150 y268 y186 y295 y230 y15 y128 y117 y129 y145 y294 y7 





z181z129z3 z181z145z1 z181z145z3 z181z294z3 

z30z186z2 z30z295z2 z30z128z2 z30z129z2 
z239z15z3 z239z128z3 z239z129z3 z239z145z3 z239z294z3 
z80z186z2 z80z295z2 z80z128z2 z80z129z2 

z48z186z2 z48z295z2 z48z128z2 z48z129z2 


z150z15z3 
z268z117z1 
z186z128z2 z186z129z2 
z295z230z1 z295z15z1 z295z7z1 
z230z15z1 z230z7z1 
z15z7z1 
z128z129z2 z128z129z3 z128z145z3 z128z294z3 

z129z145z3 z129z294z3 
z145z294z3 



End